benchmark/results/graph__10-1000-0.10-03_7/graph__10-1000-0.10-03_7_Quinton_Benders_sub.lp
\ This file has been generated by DOcplex
\ ENCODING=ISO-8859-1
\Problem name: Quinton Benders_dual_sub

Minimize
 obj: 0.001246882793 pi_nr_a0 + 0.001092896175 pi_nr_a1
      + 0.001017293998 pi_nr_a2 + 0.001200480192 pi_nr_a3
      + 0.001390820584 pi_nr_a4 + 0.000938967136 pi_nr_a5
      + 0.001071811361 pi_nr_a6 + 0.001727115717 pi_nr_a7
      + 0.001396648045 pi_nr_a8 + 0.000836120401 pi_nr_a9 + pi_p_a5_a1
      + pi_p_a9_a3 + pi_p_a9_a0 + pi_p_a8_a1 + pi_d_a0_a1_proc_2
      + 2555 pi_d_a0_a1_proc_0 + 2554 pi_d_a1_a0_proc_0 + 2554 pi_d_a0_a2_proc_1
      + pi_d_a2_a0_proc_2 + 2555 pi_d_a2_a0_proc_1 + 2554 pi_d_a0_a3_proc_2
      + 3831 pi_d_a0_a3_proc_0 + 2554 pi_d_a0_a3_proc_1 + pi_d_a3_a0_proc_2
      + 1278 pi_d_a3_a0_proc_0 + pi_d_a3_a0_proc_1 + 2554 pi_d_a0_a4_proc_2
      + 2554 pi_d_a0_a4_proc_0 + 3831 pi_d_a0_a4_proc_1 + pi_d_a4_a0_proc_2
      + pi_d_a4_a0_proc_0 + 1278 pi_d_a4_a0_proc_1 + 3831 pi_d_a0_a5_proc_0
      + 2554 pi_d_a0_a5_proc_1 + 1278 pi_d_a5_a0_proc_0 + pi_d_a5_a0_proc_1
      + 2554 pi_d_a0_a6_proc_0 + 3831 pi_d_a0_a6_proc_1 + pi_d_a6_a0_proc_0
      + 1278 pi_d_a6_a0_proc_1 + 2554 pi_d_a0_a7_proc_2 + 2554 pi_d_a0_a7_proc_1
      + pi_d_a7_a0_proc_2 + pi_d_a7_a0_proc_1 + 2554 pi_d_a0_a8_proc_0
      + 2554 pi_d_a0_a8_proc_1 + pi_d_a8_a0_proc_2 + 2555 pi_d_a8_a0_proc_0
      + 2555 pi_d_a8_a0_proc_1 + 2554 pi_d_a0_a9_proc_2 + 2554 pi_d_a0_a9_proc_0
      + 3831 pi_d_a0_a9_proc_1 + pi_d_a9_a0_proc_2 + pi_d_a9_a0_proc_0
      + 1278 pi_d_a9_a0_proc_1 + pi_d_a2_a1_proc_2 + 2554 pi_d_a1_a3_proc_2
      + 3831 pi_d_a1_a3_proc_0 + pi_d_a3_a1_proc_2 + 1278 pi_d_a3_a1_proc_0
      + 2554 pi_d_a1_a4_proc_2 + 2554 pi_d_a1_a4_proc_0 + pi_d_a4_a1_proc_2
      + pi_d_a4_a1_proc_0 + 5107 pi_d_a1_a5_proc_0 + 2 pi_d_a5_a1_proc_0
      + 2554 pi_d_a1_a6_proc_0 + pi_d_a6_a1_proc_0 + 2554 pi_d_a1_a7_proc_2
      + pi_d_a7_a1_proc_2 + 2554 pi_d_a1_a8_proc_0 + pi_d_a8_a1_proc_2
      + 2555 pi_d_a8_a1_proc_0 + 2555 pi_d_a9_a1_proc_2 + 2555 pi_d_a9_a1_proc_0
      + 2554 pi_d_a2_a3_proc_2 + 2554 pi_d_a2_a3_proc_1 + pi_d_a3_a2_proc_2
      + pi_d_a3_a2_proc_1 + 2554 pi_d_a2_a4_proc_2 + 3831 pi_d_a2_a4_proc_1
      + pi_d_a4_a2_proc_2 + 1278 pi_d_a4_a2_proc_1 + 2554 pi_d_a2_a5_proc_1
      + pi_d_a5_a2_proc_1 + 5108 pi_d_a2_a6_proc_1 + pi_d_a6_a2_proc_1
      + 2554 pi_d_a2_a7_proc_2 + 2554 pi_d_a2_a7_proc_1 + pi_d_a7_a2_proc_2
      + pi_d_a7_a2_proc_1 + 2554 pi_d_a2_a8_proc_1 + pi_d_a8_a2_proc_2
      + 2555 pi_d_a8_a2_proc_1 + 2554 pi_d_a2_a9_proc_2 + 3831 pi_d_a2_a9_proc_1
      + pi_d_a9_a2_proc_2 + 1278 pi_d_a9_a2_proc_1 + 3831 pi_d_a3_a4_proc_2
      + 2554 pi_d_a3_a4_proc_0 + 2554 pi_d_a3_a4_proc_1 + 1278 pi_d_a4_a3_proc_2
      + pi_d_a4_a3_proc_0 + pi_d_a4_a3_proc_1 + 2554 pi_d_a3_a5_proc_0
      + 2555 pi_d_a5_a3_proc_0 + pi_d_a5_a3_proc_1 + 2554 pi_d_a3_a6_proc_0
      + 2554 pi_d_a3_a6_proc_1 + pi_d_a6_a3_proc_0 + pi_d_a6_a3_proc_1
      + 2554 pi_d_a3_a7_proc_2 + 2555 pi_d_a7_a3_proc_2 + pi_d_a7_a3_proc_1
      + 2554 pi_d_a3_a8_proc_2 + 3831 pi_d_a3_a8_proc_0 + 2554 pi_d_a3_a8_proc_1
      + pi_d_a8_a3_proc_2 + 1278 pi_d_a8_a3_proc_0 + pi_d_a8_a3_proc_1
      + 3831 pi_d_a3_a9_proc_2 + 2554 pi_d_a3_a9_proc_0 + 2554 pi_d_a3_a9_proc_1
      + 1278 pi_d_a9_a3_proc_2 + pi_d_a9_a3_proc_0 + pi_d_a9_a3_proc_1
      + 2554 pi_d_a4_a5_proc_0 + 2554 pi_d_a4_a5_proc_1 + pi_d_a5_a4_proc_0
      + pi_d_a5_a4_proc_1 + 2554 pi_d_a4_a6_proc_1 + pi_d_a6_a4_proc_0
      + 2555 pi_d_a6_a4_proc_1 + 3831 pi_d_a4_a7_proc_2 + 2554 pi_d_a4_a7_proc_1
      + 1278 pi_d_a7_a4_proc_2 + pi_d_a7_a4_proc_1 + 2554 pi_d_a4_a8_proc_2
      + 2554 pi_d_a4_a8_proc_0 + 3831 pi_d_a4_a8_proc_1 + pi_d_a8_a4_proc_2
      + pi_d_a8_a4_proc_0 + 1278 pi_d_a8_a4_proc_1 + 2554 pi_d_a4_a9_proc_2
      + 2554 pi_d_a4_a9_proc_1 + 2555 pi_d_a9_a4_proc_2 + pi_d_a9_a4_proc_0
      + 2555 pi_d_a9_a4_proc_1 + 2555 pi_d_a5_a6_proc_0 + 2555 pi_d_a5_a6_proc_1
      + pi_d_a5_a7_proc_1 + 3832 pi_d_a5_a8_proc_0 + 2555 pi_d_a5_a8_proc_1
      + 1277 pi_d_a8_a5_proc_0 + 2554 pi_d_a5_a9_proc_0 + 2554 pi_d_a5_a9_proc_1
      + pi_d_a9_a5_proc_0 + pi_d_a9_a5_proc_1 + pi_d_a6_a7_proc_1
      + 2554 pi_d_a7_a6_proc_1 + 2555 pi_d_a6_a8_proc_0 + 3832 pi_d_a6_a8_proc_1
      + 1277 pi_d_a8_a6_proc_1 + 2554 pi_d_a6_a9_proc_1 + pi_d_a9_a6_proc_0
      + 2555 pi_d_a9_a6_proc_1 + 2555 pi_d_a7_a8_proc_2 + 2555 pi_d_a7_a8_proc_1
      + 3831 pi_d_a7_a9_proc_2 + 2554 pi_d_a7_a9_proc_1 + 1278 pi_d_a9_a7_proc_2
      + pi_d_a9_a7_proc_1 + 2554 pi_d_a8_a9_proc_2 + 2554 pi_d_a8_a9_proc_0
      + 3831 pi_d_a8_a9_proc_1 + pi_d_a9_a8_proc_2 + pi_d_a9_a8_proc_0
      + 1278 pi_d_a9_a8_proc_1 + pi_y2_a0_proc_2 + pi_y2_a1_proc_2
      + pi_y2_a2_proc_2 + pi_y2_a3_proc_1 + pi_y2_a4_proc_0 + pi_y2_a5_proc_1
      + pi_y2_a6_proc_0 + pi_y2_a7_proc_1 + pi_y2_a8_proc_2 + pi_y2_a9_proc_0
Subject To
 c1: pi_nr_a0 + pi_nr_a1 + pi_nr_a2 + pi_nr_a3 + pi_nr_a4 + pi_nr_a5 + pi_nr_a6
     + pi_nr_a7 + pi_nr_a8 + pi_nr_a9 - pi_y1_a0 - pi_y1_a1 - pi_y1_a2
     - pi_y1_a3 - pi_y1_a4 - pi_y1_a5 - pi_y1_a6 - pi_y1_a7 - pi_y1_a8
     - pi_y1_a9 >= 1
 c2: - pi_p_a1_a0 + pi_p_a0_a2 - pi_p_a9_a0 + pi_d_a0_a1_proc_2
     + pi_d_a0_a1_proc_0 - pi_d_a1_a0_proc_2 - pi_d_a1_a0_proc_0
     + pi_d_a0_a2_proc_2 + pi_d_a0_a2_proc_1 - pi_d_a2_a0_proc_2
     - pi_d_a2_a0_proc_1 + pi_d_a0_a3_proc_2 + pi_d_a0_a3_proc_0
     + pi_d_a0_a3_proc_1 - pi_d_a3_a0_proc_2 - pi_d_a3_a0_proc_0
     - pi_d_a3_a0_proc_1 + pi_d_a0_a4_proc_2 + pi_d_a0_a4_proc_0
     + pi_d_a0_a4_proc_1 - pi_d_a4_a0_proc_2 - pi_d_a4_a0_proc_0
     - pi_d_a4_a0_proc_1 + pi_d_a0_a5_proc_0 + pi_d_a0_a5_proc_1
     - pi_d_a5_a0_proc_0 - pi_d_a5_a0_proc_1 + pi_d_a0_a6_proc_0
     + pi_d_a0_a6_proc_1 - pi_d_a6_a0_proc_0 - pi_d_a6_a0_proc_1
     + pi_d_a0_a7_proc_2 + pi_d_a0_a7_proc_1 - pi_d_a7_a0_proc_2
     - pi_d_a7_a0_proc_1 + pi_d_a0_a8_proc_2 + pi_d_a0_a8_proc_0
     + pi_d_a0_a8_proc_1 - pi_d_a8_a0_proc_2 - pi_d_a8_a0_proc_0
     - pi_d_a8_a0_proc_1 + pi_d_a0_a9_proc_2 + pi_d_a0_a9_proc_0
     + pi_d_a0_a9_proc_1 - pi_d_a9_a0_proc_2 - pi_d_a9_a0_proc_0
     - pi_d_a9_a0_proc_1 >= 0
 c3: 1216 pi_p_a0_a2 + 1216 pi_d_a0_a1_proc_0 + 1216 pi_d_a0_a3_proc_0
     + 1216 pi_d_a0_a4_proc_0 + 1216 pi_d_a0_a5_proc_0 + 1216 pi_d_a0_a6_proc_0
     + 1216 pi_d_a0_a8_proc_0 + 1216 pi_d_a0_a9_proc_0 + pi_y1_a0
     + pi_y2_a0_proc_0 >= 0
 c4: 1059 pi_p_a0_a2 + 1059 pi_d_a0_a2_proc_1 + 1059 pi_d_a0_a3_proc_1
     + 1059 pi_d_a0_a4_proc_1 + 1059 pi_d_a0_a5_proc_1 + 1059 pi_d_a0_a6_proc_1
     + 1059 pi_d_a0_a7_proc_1 + 1059 pi_d_a0_a8_proc_1 + 1059 pi_d_a0_a9_proc_1
     + pi_y1_a0 + pi_y2_a0_proc_1 >= 0
 c5: 802 pi_p_a0_a2 + 802 pi_d_a0_a1_proc_2 + 802 pi_d_a0_a2_proc_2
     + 802 pi_d_a0_a3_proc_2 + 802 pi_d_a0_a4_proc_2 + 802 pi_d_a0_a7_proc_2
     + 802 pi_d_a0_a8_proc_2 + 802 pi_d_a0_a9_proc_2 + pi_y1_a0
     + pi_y2_a0_proc_2 >= 0
 c6: pi_p_a1_a0 - pi_p_a5_a1 - pi_p_a8_a1 - pi_d_a0_a1_proc_2
     - pi_d_a0_a1_proc_0 + pi_d_a1_a0_proc_2 + pi_d_a1_a0_proc_0
     + pi_d_a1_a2_proc_2 - pi_d_a2_a1_proc_2 + pi_d_a1_a3_proc_2
     + pi_d_a1_a3_proc_0 - pi_d_a3_a1_proc_2 - pi_d_a3_a1_proc_0
     + pi_d_a1_a4_proc_2 + pi_d_a1_a4_proc_0 - pi_d_a4_a1_proc_2
     - pi_d_a4_a1_proc_0 + pi_d_a1_a5_proc_0 - pi_d_a5_a1_proc_0
     + pi_d_a1_a6_proc_0 - pi_d_a6_a1_proc_0 + pi_d_a1_a7_proc_2
     - pi_d_a7_a1_proc_2 + pi_d_a1_a8_proc_2 + pi_d_a1_a8_proc_0
     - pi_d_a8_a1_proc_2 - pi_d_a8_a1_proc_0 + pi_d_a1_a9_proc_2
     + pi_d_a1_a9_proc_0 - pi_d_a9_a1_proc_2 - pi_d_a9_a1_proc_0 >= 0
 c7: 917 pi_p_a1_a0 + 917 pi_d_a1_a0_proc_0 + 917 pi_d_a1_a3_proc_0
     + 917 pi_d_a1_a4_proc_0 + 917 pi_d_a1_a5_proc_0 + 917 pi_d_a1_a6_proc_0
     + 917 pi_d_a1_a8_proc_0 + 917 pi_d_a1_a9_proc_0 + pi_y1_a1
     + pi_y2_a1_proc_0 >= 0
 c8: 915 pi_p_a1_a0 + 915 pi_d_a1_a0_proc_2 + 915 pi_d_a1_a2_proc_2
     + 915 pi_d_a1_a3_proc_2 + 915 pi_d_a1_a4_proc_2 + 915 pi_d_a1_a7_proc_2
     + 915 pi_d_a1_a8_proc_2 + 915 pi_d_a1_a9_proc_2 + pi_y1_a1
     + pi_y2_a1_proc_2 >= 0
 c9: - pi_p_a0_a2 + pi_p_a2_a3 + pi_p_a2_a4 - pi_d_a0_a2_proc_2
     - pi_d_a0_a2_proc_1 + pi_d_a2_a0_proc_2 + pi_d_a2_a0_proc_1
     - pi_d_a1_a2_proc_2 + pi_d_a2_a1_proc_2 + pi_d_a2_a3_proc_2
     + pi_d_a2_a3_proc_1 - pi_d_a3_a2_proc_2 - pi_d_a3_a2_proc_1
     + pi_d_a2_a4_proc_2 + pi_d_a2_a4_proc_1 - pi_d_a4_a2_proc_2
     - pi_d_a4_a2_proc_1 + pi_d_a2_a5_proc_1 - pi_d_a5_a2_proc_1
     + pi_d_a2_a6_proc_1 - pi_d_a6_a2_proc_1 + pi_d_a2_a7_proc_2
     + pi_d_a2_a7_proc_1 - pi_d_a7_a2_proc_2 - pi_d_a7_a2_proc_1
     + pi_d_a2_a8_proc_2 + pi_d_a2_a8_proc_1 - pi_d_a8_a2_proc_2
     - pi_d_a8_a2_proc_1 + pi_d_a2_a9_proc_2 + pi_d_a2_a9_proc_1
     - pi_d_a9_a2_proc_2 - pi_d_a9_a2_proc_1 >= 0
 c10: 1064 pi_p_a2_a3 + 1064 pi_p_a2_a4 + 1064 pi_d_a2_a0_proc_1
      + 1064 pi_d_a2_a3_proc_1 + 1064 pi_d_a2_a4_proc_1 + 1064 pi_d_a2_a5_proc_1
      + 1064 pi_d_a2_a6_proc_1 + 1064 pi_d_a2_a7_proc_1 + 1064 pi_d_a2_a8_proc_1
      + 1064 pi_d_a2_a9_proc_1 + pi_y1_a2 + pi_y2_a2_proc_1 >= 0
 c11: 983 pi_p_a2_a3 + 983 pi_p_a2_a4 + 983 pi_d_a2_a0_proc_2
      + 983 pi_d_a2_a1_proc_2 + 983 pi_d_a2_a3_proc_2 + 983 pi_d_a2_a4_proc_2
      + 983 pi_d_a2_a7_proc_2 + 983 pi_d_a2_a8_proc_2 + 983 pi_d_a2_a9_proc_2
      + pi_y1_a2 + pi_y2_a2_proc_2 >= 0
 c12: - pi_p_a2_a3 + pi_p_a3_a8 - pi_p_a9_a3 + pi_p_a3_a9 - pi_d_a0_a3_proc_2
      - pi_d_a0_a3_proc_0 - pi_d_a0_a3_proc_1 + pi_d_a3_a0_proc_2
      + pi_d_a3_a0_proc_0 + pi_d_a3_a0_proc_1 - pi_d_a1_a3_proc_2
      - pi_d_a1_a3_proc_0 + pi_d_a3_a1_proc_2 + pi_d_a3_a1_proc_0
      - pi_d_a2_a3_proc_2 - pi_d_a2_a3_proc_1 + pi_d_a3_a2_proc_2
      + pi_d_a3_a2_proc_1 + pi_d_a3_a4_proc_2 + pi_d_a3_a4_proc_0
      + pi_d_a3_a4_proc_1 - pi_d_a4_a3_proc_2 - pi_d_a4_a3_proc_0
      - pi_d_a4_a3_proc_1 + pi_d_a3_a5_proc_0 + pi_d_a3_a5_proc_1
      - pi_d_a5_a3_proc_0 - pi_d_a5_a3_proc_1 + pi_d_a3_a6_proc_0
      + pi_d_a3_a6_proc_1 - pi_d_a6_a3_proc_0 - pi_d_a6_a3_proc_1
      + pi_d_a3_a7_proc_2 + pi_d_a3_a7_proc_1 - pi_d_a7_a3_proc_2
      - pi_d_a7_a3_proc_1 + pi_d_a3_a8_proc_2 + pi_d_a3_a8_proc_0
      + pi_d_a3_a8_proc_1 - pi_d_a8_a3_proc_2 - pi_d_a8_a3_proc_0
      - pi_d_a8_a3_proc_1 + pi_d_a3_a9_proc_2 + pi_d_a3_a9_proc_0
      + pi_d_a3_a9_proc_1 - pi_d_a9_a3_proc_2 - pi_d_a9_a3_proc_0
      - pi_d_a9_a3_proc_1 >= 0
 c13: 1157 pi_p_a3_a8 + 1157 pi_p_a3_a9 + 1157 pi_d_a3_a0_proc_0
      + 1157 pi_d_a3_a1_proc_0 + 1157 pi_d_a3_a4_proc_0 + 1157 pi_d_a3_a5_proc_0
      + 1157 pi_d_a3_a6_proc_0 + 1157 pi_d_a3_a8_proc_0 + 1157 pi_d_a3_a9_proc_0
      + pi_y1_a3 + pi_y2_a3_proc_0 >= 0
 c14: 833 pi_p_a3_a8 + 833 pi_p_a3_a9 + 833 pi_d_a3_a0_proc_1
      + 833 pi_d_a3_a2_proc_1 + 833 pi_d_a3_a4_proc_1 + 833 pi_d_a3_a5_proc_1
      + 833 pi_d_a3_a6_proc_1 + 833 pi_d_a3_a7_proc_1 + 833 pi_d_a3_a8_proc_1
      + 833 pi_d_a3_a9_proc_1 + pi_y1_a3 + pi_y2_a3_proc_1 >= 0
 c15: 1277 pi_p_a3_a8 + 1277 pi_p_a3_a9 + 1277 pi_d_a3_a0_proc_2
      + 1277 pi_d_a3_a1_proc_2 + 1277 pi_d_a3_a2_proc_2 + 1277 pi_d_a3_a4_proc_2
      + 1277 pi_d_a3_a7_proc_2 + 1277 pi_d_a3_a8_proc_2 + 1277 pi_d_a3_a9_proc_2
      + pi_y1_a3 + pi_y2_a3_proc_2 >= 0
 c16: - pi_p_a2_a4 + pi_p_a4_a6 + pi_p_a4_a7 - pi_d_a0_a4_proc_2
      - pi_d_a0_a4_proc_0 - pi_d_a0_a4_proc_1 + pi_d_a4_a0_proc_2
      + pi_d_a4_a0_proc_0 + pi_d_a4_a0_proc_1 - pi_d_a1_a4_proc_2
      - pi_d_a1_a4_proc_0 + pi_d_a4_a1_proc_2 + pi_d_a4_a1_proc_0
      - pi_d_a2_a4_proc_2 - pi_d_a2_a4_proc_1 + pi_d_a4_a2_proc_2
      + pi_d_a4_a2_proc_1 - pi_d_a3_a4_proc_2 - pi_d_a3_a4_proc_0
      - pi_d_a3_a4_proc_1 + pi_d_a4_a3_proc_2 + pi_d_a4_a3_proc_0
      + pi_d_a4_a3_proc_1 + pi_d_a4_a5_proc_0 + pi_d_a4_a5_proc_1
      - pi_d_a5_a4_proc_0 - pi_d_a5_a4_proc_1 + pi_d_a4_a6_proc_0
      + pi_d_a4_a6_proc_1 - pi_d_a6_a4_proc_0 - pi_d_a6_a4_proc_1
      + pi_d_a4_a7_proc_2 + pi_d_a4_a7_proc_1 - pi_d_a7_a4_proc_2
      - pi_d_a7_a4_proc_1 + pi_d_a4_a8_proc_2 + pi_d_a4_a8_proc_0
      + pi_d_a4_a8_proc_1 - pi_d_a8_a4_proc_2 - pi_d_a8_a4_proc_0
      - pi_d_a8_a4_proc_1 + pi_d_a4_a9_proc_2 + pi_d_a4_a9_proc_0
      + pi_d_a4_a9_proc_1 - pi_d_a9_a4_proc_2 - pi_d_a9_a4_proc_0
      - pi_d_a9_a4_proc_1 >= 0
 c17: 719 pi_p_a4_a6 + 719 pi_p_a4_a7 + 719 pi_d_a4_a0_proc_0
      + 719 pi_d_a4_a1_proc_0 + 719 pi_d_a4_a3_proc_0 + 719 pi_d_a4_a5_proc_0
      + 719 pi_d_a4_a6_proc_0 + 719 pi_d_a4_a8_proc_0 + 719 pi_d_a4_a9_proc_0
      + pi_y1_a4 + pi_y2_a4_proc_0 >= 0
 c18: 1052 pi_p_a4_a6 + 1052 pi_p_a4_a7 + 1052 pi_d_a4_a0_proc_1
      + 1052 pi_d_a4_a2_proc_1 + 1052 pi_d_a4_a3_proc_1 + 1052 pi_d_a4_a5_proc_1
      + 1052 pi_d_a4_a6_proc_1 + 1052 pi_d_a4_a7_proc_1 + 1052 pi_d_a4_a8_proc_1
      + 1052 pi_d_a4_a9_proc_1 + pi_y1_a4 + pi_y2_a4_proc_1 >= 0
 c19: 940 pi_p_a4_a6 + 940 pi_p_a4_a7 + 940 pi_d_a4_a0_proc_2
      + 940 pi_d_a4_a1_proc_2 + 940 pi_d_a4_a2_proc_2 + 940 pi_d_a4_a3_proc_2
      + 940 pi_d_a4_a7_proc_2 + 940 pi_d_a4_a8_proc_2 + 940 pi_d_a4_a9_proc_2
      + pi_y1_a4 + pi_y2_a4_proc_2 >= 0
 c20: pi_p_a5_a1 - pi_p_a6_a5 - pi_p_a7_a5 - pi_p_a8_a5 - pi_d_a0_a5_proc_0
      - pi_d_a0_a5_proc_1 + pi_d_a5_a0_proc_0 + pi_d_a5_a0_proc_1
      - pi_d_a1_a5_proc_0 + pi_d_a5_a1_proc_0 - pi_d_a2_a5_proc_1
      + pi_d_a5_a2_proc_1 - pi_d_a3_a5_proc_0 - pi_d_a3_a5_proc_1
      + pi_d_a5_a3_proc_0 + pi_d_a5_a3_proc_1 - pi_d_a4_a5_proc_0
      - pi_d_a4_a5_proc_1 + pi_d_a5_a4_proc_0 + pi_d_a5_a4_proc_1
      + pi_d_a5_a6_proc_0 + pi_d_a5_a6_proc_1 - pi_d_a6_a5_proc_0
      - pi_d_a6_a5_proc_1 + pi_d_a5_a7_proc_1 - pi_d_a7_a5_proc_1
      + pi_d_a5_a8_proc_0 + pi_d_a5_a8_proc_1 - pi_d_a8_a5_proc_0
      - pi_d_a8_a5_proc_1 + pi_d_a5_a9_proc_0 + pi_d_a5_a9_proc_1
      - pi_d_a9_a5_proc_0 - pi_d_a9_a5_proc_1 >= 0
 c21: 1128 pi_p_a5_a1 + 1128 pi_d_a5_a0_proc_0 + 1128 pi_d_a5_a1_proc_0
      + 1128 pi_d_a5_a3_proc_0 + 1128 pi_d_a5_a4_proc_0 + 1128 pi_d_a5_a6_proc_0
      + 1128 pi_d_a5_a8_proc_0 + 1128 pi_d_a5_a9_proc_0 + pi_y1_a5
      + pi_y2_a5_proc_0 >= 0
 c22: 1065 pi_p_a5_a1 + 1065 pi_d_a5_a0_proc_1 + 1065 pi_d_a5_a2_proc_1
      + 1065 pi_d_a5_a3_proc_1 + 1065 pi_d_a5_a4_proc_1 + 1065 pi_d_a5_a6_proc_1
      + 1065 pi_d_a5_a7_proc_1 + 1065 pi_d_a5_a8_proc_1 + 1065 pi_d_a5_a9_proc_1
      + pi_y1_a5 + pi_y2_a5_proc_1 >= 0
 c23: - pi_p_a4_a6 + pi_p_a6_a5 + pi_p_a6_a9 - pi_d_a0_a6_proc_0
      - pi_d_a0_a6_proc_1 + pi_d_a6_a0_proc_0 + pi_d_a6_a0_proc_1
      - pi_d_a1_a6_proc_0 + pi_d_a6_a1_proc_0 - pi_d_a2_a6_proc_1
      + pi_d_a6_a2_proc_1 - pi_d_a3_a6_proc_0 - pi_d_a3_a6_proc_1
      + pi_d_a6_a3_proc_0 + pi_d_a6_a3_proc_1 - pi_d_a4_a6_proc_0
      - pi_d_a4_a6_proc_1 + pi_d_a6_a4_proc_0 + pi_d_a6_a4_proc_1
      - pi_d_a5_a6_proc_0 - pi_d_a5_a6_proc_1 + pi_d_a6_a5_proc_0
      + pi_d_a6_a5_proc_1 + pi_d_a6_a7_proc_1 - pi_d_a7_a6_proc_1
      + pi_d_a6_a8_proc_0 + pi_d_a6_a8_proc_1 - pi_d_a8_a6_proc_0
      - pi_d_a8_a6_proc_1 + pi_d_a6_a9_proc_0 + pi_d_a6_a9_proc_1
      - pi_d_a9_a6_proc_0 - pi_d_a9_a6_proc_1 >= 0
 c24: 933 pi_p_a6_a5 + 933 pi_p_a6_a9 + 933 pi_d_a6_a0_proc_0
      + 933 pi_d_a6_a1_proc_0 + 933 pi_d_a6_a3_proc_0 + 933 pi_d_a6_a4_proc_0
      + 933 pi_d_a6_a5_proc_0 + 933 pi_d_a6_a8_proc_0 + 933 pi_d_a6_a9_proc_0
      + pi_y1_a6 + pi_y2_a6_proc_0 >= 0
 c25: 784 pi_p_a6_a5 + 784 pi_p_a6_a9 + 784 pi_d_a6_a0_proc_1
      + 784 pi_d_a6_a2_proc_1 + 784 pi_d_a6_a3_proc_1 + 784 pi_d_a6_a4_proc_1
      + 784 pi_d_a6_a5_proc_1 + 784 pi_d_a6_a7_proc_1 + 784 pi_d_a6_a8_proc_1
      + 784 pi_d_a6_a9_proc_1 + pi_y1_a6 + pi_y2_a6_proc_1 >= 0
 c26: - pi_p_a4_a7 + pi_p_a7_a5 - pi_p_a8_a7 + pi_p_a7_a9 - pi_d_a0_a7_proc_2
      - pi_d_a0_a7_proc_1 + pi_d_a7_a0_proc_2 + pi_d_a7_a0_proc_1
      - pi_d_a1_a7_proc_2 + pi_d_a7_a1_proc_2 - pi_d_a2_a7_proc_2
      - pi_d_a2_a7_proc_1 + pi_d_a7_a2_proc_2 + pi_d_a7_a2_proc_1
      - pi_d_a3_a7_proc_2 - pi_d_a3_a7_proc_1 + pi_d_a7_a3_proc_2
      + pi_d_a7_a3_proc_1 - pi_d_a4_a7_proc_2 - pi_d_a4_a7_proc_1
      + pi_d_a7_a4_proc_2 + pi_d_a7_a4_proc_1 - pi_d_a5_a7_proc_1
      + pi_d_a7_a5_proc_1 - pi_d_a6_a7_proc_1 + pi_d_a7_a6_proc_1
      + pi_d_a7_a8_proc_2 + pi_d_a7_a8_proc_1 - pi_d_a8_a7_proc_2
      - pi_d_a8_a7_proc_1 + pi_d_a7_a9_proc_2 + pi_d_a7_a9_proc_1
      - pi_d_a9_a7_proc_2 - pi_d_a9_a7_proc_1 >= 0
 c27: 579 pi_p_a7_a5 + 579 pi_p_a7_a9 + 579 pi_d_a7_a0_proc_1
      + 579 pi_d_a7_a2_proc_1 + 579 pi_d_a7_a3_proc_1 + 579 pi_d_a7_a4_proc_1
      + 579 pi_d_a7_a5_proc_1 + 579 pi_d_a7_a6_proc_1 + 579 pi_d_a7_a8_proc_1
      + 579 pi_d_a7_a9_proc_1 + pi_y1_a7 + pi_y2_a7_proc_1 >= 0
 c28: 980 pi_p_a7_a5 + 980 pi_p_a7_a9 + 980 pi_d_a7_a0_proc_2
      + 980 pi_d_a7_a1_proc_2 + 980 pi_d_a7_a2_proc_2 + 980 pi_d_a7_a3_proc_2
      + 980 pi_d_a7_a4_proc_2 + 980 pi_d_a7_a8_proc_2 + 980 pi_d_a7_a9_proc_2
      + pi_y1_a7 + pi_y2_a7_proc_2 >= 0
 c29: - pi_p_a3_a8 + pi_p_a8_a7 + pi_p_a8_a1 + pi_p_a8_a5 - pi_d_a0_a8_proc_2
      - pi_d_a0_a8_proc_0 - pi_d_a0_a8_proc_1 + pi_d_a8_a0_proc_2
      + pi_d_a8_a0_proc_0 + pi_d_a8_a0_proc_1 - pi_d_a1_a8_proc_2
      - pi_d_a1_a8_proc_0 + pi_d_a8_a1_proc_2 + pi_d_a8_a1_proc_0
      - pi_d_a2_a8_proc_2 - pi_d_a2_a8_proc_1 + pi_d_a8_a2_proc_2
      + pi_d_a8_a2_proc_1 - pi_d_a3_a8_proc_2 - pi_d_a3_a8_proc_0
      - pi_d_a3_a8_proc_1 + pi_d_a8_a3_proc_2 + pi_d_a8_a3_proc_0
      + pi_d_a8_a3_proc_1 - pi_d_a4_a8_proc_2 - pi_d_a4_a8_proc_0
      - pi_d_a4_a8_proc_1 + pi_d_a8_a4_proc_2 + pi_d_a8_a4_proc_0
      + pi_d_a8_a4_proc_1 - pi_d_a5_a8_proc_0 - pi_d_a5_a8_proc_1
      + pi_d_a8_a5_proc_0 + pi_d_a8_a5_proc_1 - pi_d_a6_a8_proc_0
      - pi_d_a6_a8_proc_1 + pi_d_a8_a6_proc_0 + pi_d_a8_a6_proc_1
      - pi_d_a7_a8_proc_2 - pi_d_a7_a8_proc_1 + pi_d_a8_a7_proc_2
      + pi_d_a8_a7_proc_1 + pi_d_a8_a9_proc_2 + pi_d_a8_a9_proc_0
      + pi_d_a8_a9_proc_1 - pi_d_a9_a8_proc_2 - pi_d_a9_a8_proc_0
      - pi_d_a9_a8_proc_1 >= 0
 c30: 964 pi_p_a8_a7 + 964 pi_p_a8_a1 + 964 pi_p_a8_a5 + 964 pi_d_a8_a0_proc_0
      + 964 pi_d_a8_a1_proc_0 + 964 pi_d_a8_a3_proc_0 + 964 pi_d_a8_a4_proc_0
      + 964 pi_d_a8_a5_proc_0 + 964 pi_d_a8_a6_proc_0 + 964 pi_d_a8_a9_proc_0
      + pi_y1_a8 + pi_y2_a8_proc_0 >= 0
 c31: 801 pi_p_a8_a7 + 801 pi_p_a8_a1 + 801 pi_p_a8_a5 + 801 pi_d_a8_a0_proc_1
      + 801 pi_d_a8_a2_proc_1 + 801 pi_d_a8_a3_proc_1 + 801 pi_d_a8_a4_proc_1
      + 801 pi_d_a8_a5_proc_1 + 801 pi_d_a8_a6_proc_1 + 801 pi_d_a8_a7_proc_1
      + 801 pi_d_a8_a9_proc_1 + pi_y1_a8 + pi_y2_a8_proc_1 >= 0
 c32: 716 pi_p_a8_a7 + 716 pi_p_a8_a1 + 716 pi_p_a8_a5 + 716 pi_d_a8_a0_proc_2
      + 716 pi_d_a8_a1_proc_2 + 716 pi_d_a8_a2_proc_2 + 716 pi_d_a8_a3_proc_2
      + 716 pi_d_a8_a4_proc_2 + 716 pi_d_a8_a7_proc_2 + 716 pi_d_a8_a9_proc_2
      + pi_y1_a8 + pi_y2_a8_proc_2 >= 0
 c33: pi_p_a9_a3 + pi_p_a9_a0 - pi_p_a6_a9 - pi_p_a3_a9 - pi_p_a7_a9
      - pi_d_a0_a9_proc_2 - pi_d_a0_a9_proc_0 - pi_d_a0_a9_proc_1
      + pi_d_a9_a0_proc_2 + pi_d_a9_a0_proc_0 + pi_d_a9_a0_proc_1
      - pi_d_a1_a9_proc_2 - pi_d_a1_a9_proc_0 + pi_d_a9_a1_proc_2
      + pi_d_a9_a1_proc_0 - pi_d_a2_a9_proc_2 - pi_d_a2_a9_proc_1
      + pi_d_a9_a2_proc_2 + pi_d_a9_a2_proc_1 - pi_d_a3_a9_proc_2
      - pi_d_a3_a9_proc_0 - pi_d_a3_a9_proc_1 + pi_d_a9_a3_proc_2
      + pi_d_a9_a3_proc_0 + pi_d_a9_a3_proc_1 - pi_d_a4_a9_proc_2
      - pi_d_a4_a9_proc_0 - pi_d_a4_a9_proc_1 + pi_d_a9_a4_proc_2
      + pi_d_a9_a4_proc_0 + pi_d_a9_a4_proc_1 - pi_d_a5_a9_proc_0
      - pi_d_a5_a9_proc_1 + pi_d_a9_a5_proc_0 + pi_d_a9_a5_proc_1
      - pi_d_a6_a9_proc_0 - pi_d_a6_a9_proc_1 + pi_d_a9_a6_proc_0
      + pi_d_a9_a6_proc_1 - pi_d_a7_a9_proc_2 - pi_d_a7_a9_proc_1
      + pi_d_a9_a7_proc_2 + pi_d_a9_a7_proc_1 - pi_d_a8_a9_proc_2
      - pi_d_a8_a9_proc_0 - pi_d_a8_a9_proc_1 + pi_d_a9_a8_proc_2
      + pi_d_a9_a8_proc_0 + pi_d_a9_a8_proc_1 >= 0
 c34: 1196 pi_p_a9_a3 + 1196 pi_p_a9_a0 + 1196 pi_d_a9_a0_proc_0
      + 1196 pi_d_a9_a1_proc_0 + 1196 pi_d_a9_a3_proc_0 + 1196 pi_d_a9_a4_proc_0
      + 1196 pi_d_a9_a5_proc_0 + 1196 pi_d_a9_a6_proc_0 + 1196 pi_d_a9_a8_proc_0
      + pi_y1_a9 + pi_y2_a9_proc_0 >= 0
 c35: 707 pi_p_a9_a3 + 707 pi_p_a9_a0 + 707 pi_d_a9_a0_proc_1
      + 707 pi_d_a9_a2_proc_1 + 707 pi_d_a9_a3_proc_1 + 707 pi_d_a9_a4_proc_1
      + 707 pi_d_a9_a5_proc_1 + 707 pi_d_a9_a6_proc_1 + 707 pi_d_a9_a7_proc_1
      + 707 pi_d_a9_a8_proc_1 + pi_y1_a9 + pi_y2_a9_proc_1 >= 0
 c36: 1086 pi_p_a9_a3 + 1086 pi_p_a9_a0 + 1086 pi_d_a9_a0_proc_2
      + 1086 pi_d_a9_a1_proc_2 + 1086 pi_d_a9_a2_proc_2 + 1086 pi_d_a9_a3_proc_2
      + 1086 pi_d_a9_a4_proc_2 + 1086 pi_d_a9_a7_proc_2 + 1086 pi_d_a9_a8_proc_2
      + pi_y1_a9 + pi_y2_a9_proc_2 >= 0

Bounds
       pi_y1_a0 Free
       pi_y1_a1 Free
       pi_y1_a2 Free
       pi_y1_a3 Free
       pi_y1_a4 Free
       pi_y1_a5 Free
       pi_y1_a6 Free
       pi_y1_a7 Free
       pi_y1_a8 Free
       pi_y1_a9 Free
End
