benchmark/results/graph__10-1000-0.10-03_7/graph__10-1000-0.10-03_7_Quinton_Benders_sub.txt
solution for: Quinton Benders_dual_sub
objective: 0.000169693
status: OPTIMAL_SOLUTION(2)
pi_p_a1_a0=0.000
pi_p_a2_a3=0.000
pi_p_a5_a1=0.000
pi_p_a3_a8=0.000
pi_p_a7_a5=0.000
pi_p_a8_a7=0.000
pi_d_a0_a2_proc_2=0.000
pi_y1_a0=-0.136
pi_y1_a1=-0.155
pi_y1_a2=-0.167
pi_y1_a3=-0.141
pi_y1_a5=-0.181
pi_y1_a7=-0.098
pi_y1_a8=-0.122
pi_y2_a0_proc_0=0.136
pi_y2_a0_proc_1=0.136
